(declare-fun $V87_cca$2 () Bool)
(declare-fun $V83_p2$2 () Bool)
(declare-fun $V86_ccont$2 () Bool)
(declare-fun $V82_p1$2 () Bool)
(declare-fun $igsw$~1 () Bool)
(declare-fun $igsw$0 () Bool)
(declare-fun $V85_p4$2 () Bool)
(declare-fun $V84_p3$2 () Bool)
(declare-fun %init () Bool)
(declare-fun $OK$2 () Bool)

(assert (let ((a!1 (ite (ite %init
                     false
                     (and $igsw$0 (not $igsw$~1) (not $igsw$0) $igsw$~1))
                (not false)
                true)))
  (and (= $OK$2 (and true a!1))
       (= $V82_p1$2 true)
       (= $V83_p2$2 true)
       (= $V84_p3$2 true)
       (= $V85_p4$2 a!1)
       (= $V87_cca$2 false)
       (= $V86_ccont$2 false))))
(check-sat)
